% Generated by MiniZinc 2.9.3
% Solver library: /home/void/Workspace-Research/Code/fzn-minicpp/minizinc
% Command line invocation: minizinc --solver org.minicpp.ml --compile --no-output-ozn rcpsp-sat.mzn dzn/J60_3_7.dzn -D makespan=59 -o fzn-sat/J60_3_7.fzn 

predicate int_lin_le_imp(array [int] of int: as,array [int] of var int: bs,int: c,var bool: r);
predicate minicpp_cumulative(array [int] of var int: s,array [int] of var int: d,array [int] of var int: r,var int: b);
array [1..2] of int: X_INTRODUCED_78_ = [1,-1];
array [1..14] of int: X_INTRODUCED_163_ = [4,5,6,9,3,3,4,9,5,2,10,10,8,3];
array [1..14] of int: X_INTRODUCED_164_ = [4,2,10,8,9,4,8,2,1,2,3,8,7,7];
array [1..19] of int: X_INTRODUCED_166_ = [8,4,6,8,6,4,7,4,3,10,9,5,7,8,3,6,7,3,4];
array [1..19] of int: X_INTRODUCED_167_ = [8,1,3,8,10,3,3,5,8,4,8,1,1,9,1,3,7,7,2];
array [1..18] of int: X_INTRODUCED_169_ = [4,6,7,8,2,4,5,4,1,4,5,8,2,7,9,1,1,9];
array [1..18] of int: X_INTRODUCED_170_ = [4,9,4,9,4,7,4,10,8,2,1,3,9,3,2,6,6,5];
array [1..9] of int: X_INTRODUCED_172_ = [10,1,10,4,5,10,3,6,2];
array [1..9] of int: X_INTRODUCED_173_ = [2,5,10,4,6,3,10,7,5];
var 0..314: X_INTRODUCED_16_;
var 0..314: X_INTRODUCED_17_;
var 0..314: X_INTRODUCED_18_;
var 0..314: X_INTRODUCED_19_;
var 0..314: X_INTRODUCED_20_;
var 0..314: X_INTRODUCED_21_;
var 0..314: X_INTRODUCED_22_;
var 0..314: X_INTRODUCED_23_;
var 0..314: X_INTRODUCED_24_;
var 0..314: X_INTRODUCED_25_;
var 0..314: X_INTRODUCED_26_;
var 0..314: X_INTRODUCED_27_;
var 0..314: X_INTRODUCED_28_;
var 0..314: X_INTRODUCED_29_;
var 0..314: X_INTRODUCED_30_;
var 0..314: X_INTRODUCED_31_;
var 0..314: X_INTRODUCED_32_;
var 0..314: X_INTRODUCED_33_;
var 0..314: X_INTRODUCED_34_;
var 0..314: X_INTRODUCED_35_;
var 0..314: X_INTRODUCED_36_;
var 0..314: X_INTRODUCED_37_;
var 0..314: X_INTRODUCED_38_;
var 0..314: X_INTRODUCED_39_;
var 0..314: X_INTRODUCED_40_;
var 0..314: X_INTRODUCED_41_;
var 0..314: X_INTRODUCED_42_;
var 0..314: X_INTRODUCED_43_;
var 0..314: X_INTRODUCED_44_;
var 0..314: X_INTRODUCED_45_;
var 0..314: X_INTRODUCED_46_;
var 0..314: X_INTRODUCED_47_;
var 0..314: X_INTRODUCED_48_;
var 0..314: X_INTRODUCED_49_;
var 0..314: X_INTRODUCED_50_;
var 0..314: X_INTRODUCED_51_;
var 0..314: X_INTRODUCED_52_;
var 0..314: X_INTRODUCED_53_;
var 0..314: X_INTRODUCED_54_;
var 0..314: X_INTRODUCED_55_;
var 0..314: X_INTRODUCED_56_;
var 0..314: X_INTRODUCED_57_;
var 0..314: X_INTRODUCED_58_;
var 0..314: X_INTRODUCED_59_;
var 0..314: X_INTRODUCED_60_;
var 0..314: X_INTRODUCED_61_;
var 0..314: X_INTRODUCED_62_;
var 0..314: X_INTRODUCED_63_;
var 0..314: X_INTRODUCED_64_;
var 0..314: X_INTRODUCED_65_;
var 0..314: X_INTRODUCED_66_;
var 0..314: X_INTRODUCED_67_;
var 0..314: X_INTRODUCED_68_;
var 0..314: X_INTRODUCED_69_;
var 0..314: X_INTRODUCED_70_;
var 0..314: X_INTRODUCED_71_;
var 0..314: X_INTRODUCED_72_;
var 0..54: X_INTRODUCED_73_;
var 0..52: X_INTRODUCED_74_;
var 0..54: X_INTRODUCED_75_;
var bool: X_INTRODUCED_135_ ::var_is_introduced :: is_defined_var;
var bool: X_INTRODUCED_136_ ::var_is_introduced :: is_defined_var;
var bool: X_INTRODUCED_137_ ::var_is_introduced :: is_defined_var;
var bool: X_INTRODUCED_138_ ::var_is_introduced :: is_defined_var;
var bool: X_INTRODUCED_139_ ::var_is_introduced :: is_defined_var;
var bool: X_INTRODUCED_140_ ::var_is_introduced :: is_defined_var;
var bool: X_INTRODUCED_141_ ::var_is_introduced :: is_defined_var;
var bool: X_INTRODUCED_142_ ::var_is_introduced :: is_defined_var;
var bool: X_INTRODUCED_143_ ::var_is_introduced :: is_defined_var;
var bool: X_INTRODUCED_144_ ::var_is_introduced :: is_defined_var;
var bool: X_INTRODUCED_145_ ::var_is_introduced :: is_defined_var;
var bool: X_INTRODUCED_146_ ::var_is_introduced :: is_defined_var;
var bool: X_INTRODUCED_147_ ::var_is_introduced :: is_defined_var;
var bool: X_INTRODUCED_148_ ::var_is_introduced :: is_defined_var;
var bool: X_INTRODUCED_149_ ::var_is_introduced :: is_defined_var;
var bool: X_INTRODUCED_150_ ::var_is_introduced :: is_defined_var;
var bool: X_INTRODUCED_151_ ::var_is_introduced :: is_defined_var;
var bool: X_INTRODUCED_152_ ::var_is_introduced :: is_defined_var;
var bool: X_INTRODUCED_153_ ::var_is_introduced :: is_defined_var;
var bool: X_INTRODUCED_154_ ::var_is_introduced :: is_defined_var;
var bool: X_INTRODUCED_155_ ::var_is_introduced :: is_defined_var;
var bool: X_INTRODUCED_156_ ::var_is_introduced :: is_defined_var;
var bool: X_INTRODUCED_157_ ::var_is_introduced :: is_defined_var;
var bool: X_INTRODUCED_158_ ::var_is_introduced :: is_defined_var;
var bool: X_INTRODUCED_159_ ::var_is_introduced :: is_defined_var;
var bool: X_INTRODUCED_160_ ::var_is_introduced :: is_defined_var;
var bool: X_INTRODUCED_161_ ::var_is_introduced :: is_defined_var;
var bool: X_INTRODUCED_162_ ::var_is_introduced :: is_defined_var;
array [1..60] of var int: s:: output_array([1..60]) = [X_INTRODUCED_16_,X_INTRODUCED_17_,X_INTRODUCED_18_,X_INTRODUCED_19_,X_INTRODUCED_20_,X_INTRODUCED_21_,X_INTRODUCED_22_,X_INTRODUCED_23_,X_INTRODUCED_24_,X_INTRODUCED_25_,X_INTRODUCED_26_,X_INTRODUCED_27_,X_INTRODUCED_28_,X_INTRODUCED_29_,X_INTRODUCED_30_,X_INTRODUCED_31_,X_INTRODUCED_32_,X_INTRODUCED_33_,X_INTRODUCED_34_,X_INTRODUCED_35_,X_INTRODUCED_36_,X_INTRODUCED_37_,X_INTRODUCED_38_,X_INTRODUCED_39_,X_INTRODUCED_40_,X_INTRODUCED_41_,X_INTRODUCED_42_,X_INTRODUCED_43_,X_INTRODUCED_44_,X_INTRODUCED_45_,X_INTRODUCED_46_,X_INTRODUCED_47_,X_INTRODUCED_48_,X_INTRODUCED_49_,X_INTRODUCED_50_,X_INTRODUCED_51_,X_INTRODUCED_52_,X_INTRODUCED_53_,X_INTRODUCED_54_,X_INTRODUCED_55_,X_INTRODUCED_56_,X_INTRODUCED_57_,X_INTRODUCED_58_,X_INTRODUCED_59_,X_INTRODUCED_60_,X_INTRODUCED_61_,X_INTRODUCED_62_,X_INTRODUCED_63_,X_INTRODUCED_64_,X_INTRODUCED_65_,X_INTRODUCED_66_,X_INTRODUCED_67_,X_INTRODUCED_68_,X_INTRODUCED_69_,X_INTRODUCED_70_,X_INTRODUCED_71_,X_INTRODUCED_72_,X_INTRODUCED_73_,X_INTRODUCED_74_,X_INTRODUCED_75_];
array [1..14] of var int: X_INTRODUCED_165_ ::var_is_introduced  = [X_INTRODUCED_19_,X_INTRODUCED_30_,X_INTRODUCED_31_,X_INTRODUCED_35_,X_INTRODUCED_38_,X_INTRODUCED_42_,X_INTRODUCED_46_,X_INTRODUCED_50_,X_INTRODUCED_53_,X_INTRODUCED_55_,X_INTRODUCED_64_,X_INTRODUCED_69_,X_INTRODUCED_70_,X_INTRODUCED_74_];
array [1..19] of var int: X_INTRODUCED_168_ ::var_is_introduced  = [X_INTRODUCED_17_,X_INTRODUCED_22_,X_INTRODUCED_23_,X_INTRODUCED_24_,X_INTRODUCED_26_,X_INTRODUCED_27_,X_INTRODUCED_28_,X_INTRODUCED_32_,X_INTRODUCED_34_,X_INTRODUCED_43_,X_INTRODUCED_45_,X_INTRODUCED_47_,X_INTRODUCED_49_,X_INTRODUCED_51_,X_INTRODUCED_56_,X_INTRODUCED_57_,X_INTRODUCED_58_,X_INTRODUCED_59_,X_INTRODUCED_60_];
array [1..18] of var int: X_INTRODUCED_171_ ::var_is_introduced  = [X_INTRODUCED_18_,X_INTRODUCED_20_,X_INTRODUCED_25_,X_INTRODUCED_29_,X_INTRODUCED_33_,X_INTRODUCED_36_,X_INTRODUCED_39_,X_INTRODUCED_40_,X_INTRODUCED_44_,X_INTRODUCED_48_,X_INTRODUCED_54_,X_INTRODUCED_61_,X_INTRODUCED_63_,X_INTRODUCED_65_,X_INTRODUCED_66_,X_INTRODUCED_67_,X_INTRODUCED_68_,X_INTRODUCED_73_];
array [1..9] of var int: X_INTRODUCED_174_ ::var_is_introduced  = [X_INTRODUCED_16_,X_INTRODUCED_21_,X_INTRODUCED_37_,X_INTRODUCED_41_,X_INTRODUCED_52_,X_INTRODUCED_62_,X_INTRODUCED_71_,X_INTRODUCED_72_,X_INTRODUCED_75_];
constraint int_lin_le(X_INTRODUCED_78_,[X_INTRODUCED_16_,X_INTRODUCED_19_],-2);
constraint int_lin_le(X_INTRODUCED_78_,[X_INTRODUCED_16_,X_INTRODUCED_22_],-2);
constraint int_lin_le(X_INTRODUCED_78_,[X_INTRODUCED_16_,X_INTRODUCED_64_],-2);
constraint int_lin_le(X_INTRODUCED_78_,[X_INTRODUCED_17_,X_INTRODUCED_20_],-8);
constraint int_lin_le(X_INTRODUCED_78_,[X_INTRODUCED_17_,X_INTRODUCED_21_],-8);
constraint int_lin_le(X_INTRODUCED_78_,[X_INTRODUCED_17_,X_INTRODUCED_23_],-8);
constraint int_lin_le(X_INTRODUCED_78_,[X_INTRODUCED_18_,X_INTRODUCED_27_],-4);
constraint int_lin_le(X_INTRODUCED_78_,[X_INTRODUCED_18_,X_INTRODUCED_41_],-4);
constraint int_lin_le(X_INTRODUCED_78_,[X_INTRODUCED_19_,X_INTRODUCED_24_],-4);
constraint int_lin_le(X_INTRODUCED_78_,[X_INTRODUCED_19_,X_INTRODUCED_34_],-4);
constraint int_lin_le(X_INTRODUCED_78_,[X_INTRODUCED_19_,X_INTRODUCED_43_],-4);
constraint int_lin_le(X_INTRODUCED_78_,[X_INTRODUCED_20_,X_INTRODUCED_29_],-9);
constraint int_lin_le(X_INTRODUCED_78_,[X_INTRODUCED_20_,X_INTRODUCED_35_],-9);
constraint int_lin_le(X_INTRODUCED_78_,[X_INTRODUCED_20_,X_INTRODUCED_44_],-9);
constraint int_lin_le(X_INTRODUCED_78_,[X_INTRODUCED_21_,X_INTRODUCED_25_],-5);
constraint int_lin_le(X_INTRODUCED_78_,[X_INTRODUCED_21_,X_INTRODUCED_26_],-5);
constraint int_lin_le(X_INTRODUCED_78_,[X_INTRODUCED_21_,X_INTRODUCED_65_],-5);
constraint int_lin_le(X_INTRODUCED_78_,[X_INTRODUCED_22_,X_INTRODUCED_28_],-1);
constraint int_lin_le(X_INTRODUCED_78_,[X_INTRODUCED_22_,X_INTRODUCED_32_],-1);
constraint int_lin_le(X_INTRODUCED_78_,[X_INTRODUCED_22_,X_INTRODUCED_33_],-1);
constraint int_lin_le(X_INTRODUCED_78_,[X_INTRODUCED_23_,X_INTRODUCED_31_],-3);
constraint int_lin_le(X_INTRODUCED_78_,[X_INTRODUCED_23_,X_INTRODUCED_37_],-3);
constraint int_lin_le(X_INTRODUCED_78_,[X_INTRODUCED_24_,X_INTRODUCED_74_],-8);
constraint int_lin_le(X_INTRODUCED_78_,[X_INTRODUCED_25_,X_INTRODUCED_30_],-4);
constraint int_lin_le(X_INTRODUCED_78_,[X_INTRODUCED_25_,X_INTRODUCED_40_],-4);
constraint int_lin_le(X_INTRODUCED_78_,[X_INTRODUCED_25_,X_INTRODUCED_57_],-4);
constraint int_lin_le(X_INTRODUCED_78_,[X_INTRODUCED_26_,X_INTRODUCED_58_],-10);
constraint int_lin_le(X_INTRODUCED_78_,[X_INTRODUCED_27_,X_INTRODUCED_54_],-3);
constraint int_lin_le(X_INTRODUCED_78_,[X_INTRODUCED_27_,X_INTRODUCED_60_],-3);
constraint int_lin_le(X_INTRODUCED_78_,[X_INTRODUCED_28_,X_INTRODUCED_39_],-3);
constraint int_lin_le(X_INTRODUCED_78_,[X_INTRODUCED_28_,X_INTRODUCED_50_],-3);
constraint int_lin_le(X_INTRODUCED_78_,[X_INTRODUCED_28_,X_INTRODUCED_69_],-3);
constraint int_lin_le(X_INTRODUCED_78_,[X_INTRODUCED_29_,X_INTRODUCED_42_],-9);
constraint int_lin_le(X_INTRODUCED_78_,[X_INTRODUCED_29_,X_INTRODUCED_51_],-9);
constraint int_lin_le(X_INTRODUCED_78_,[X_INTRODUCED_30_,X_INTRODUCED_69_],-2);
constraint int_lin_le(X_INTRODUCED_78_,[X_INTRODUCED_31_,X_INTRODUCED_38_],-10);
constraint int_lin_le(X_INTRODUCED_78_,[X_INTRODUCED_32_,X_INTRODUCED_56_],-5);
constraint int_lin_le(X_INTRODUCED_78_,[X_INTRODUCED_33_,X_INTRODUCED_39_],-4);
constraint int_lin_le(X_INTRODUCED_78_,[X_INTRODUCED_34_,X_INTRODUCED_36_],-8);
constraint int_lin_le(X_INTRODUCED_78_,[X_INTRODUCED_34_,X_INTRODUCED_47_],-8);
constraint int_lin_le(X_INTRODUCED_78_,[X_INTRODUCED_34_,X_INTRODUCED_56_],-8);
constraint int_lin_le(X_INTRODUCED_78_,[X_INTRODUCED_35_,X_INTRODUCED_45_],-8);
constraint int_lin_le(X_INTRODUCED_78_,[X_INTRODUCED_36_,X_INTRODUCED_44_],-7);
constraint int_lin_le(X_INTRODUCED_78_,[X_INTRODUCED_37_,X_INTRODUCED_47_],-10);
constraint int_lin_le(X_INTRODUCED_78_,[X_INTRODUCED_37_,X_INTRODUCED_61_],-10);
constraint int_lin_le(X_INTRODUCED_78_,[X_INTRODUCED_38_,X_INTRODUCED_46_],-9);
constraint int_lin_le(X_INTRODUCED_78_,[X_INTRODUCED_39_,X_INTRODUCED_49_],-4);
constraint int_lin_le(X_INTRODUCED_78_,[X_INTRODUCED_39_,X_INTRODUCED_55_],-4);
constraint int_lin_le(X_INTRODUCED_78_,[X_INTRODUCED_39_,X_INTRODUCED_62_],-4);
constraint int_lin_le(X_INTRODUCED_78_,[X_INTRODUCED_40_,X_INTRODUCED_72_],-10);
constraint int_lin_le(X_INTRODUCED_78_,[X_INTRODUCED_41_,X_INTRODUCED_73_],-4);
constraint int_lin_le(X_INTRODUCED_78_,[X_INTRODUCED_42_,X_INTRODUCED_71_],-4);
constraint int_lin_le(X_INTRODUCED_78_,[X_INTRODUCED_43_,X_INTRODUCED_48_],-4);
constraint int_lin_le(X_INTRODUCED_78_,[X_INTRODUCED_44_,X_INTRODUCED_75_],-8);
constraint int_lin_le(X_INTRODUCED_78_,[X_INTRODUCED_45_,X_INTRODUCED_66_],-8);
constraint int_lin_le(X_INTRODUCED_78_,[X_INTRODUCED_46_,X_INTRODUCED_55_],-8);
constraint int_lin_le(X_INTRODUCED_78_,[X_INTRODUCED_47_,X_INTRODUCED_63_],-1);
constraint int_lin_le(X_INTRODUCED_78_,[X_INTRODUCED_47_,X_INTRODUCED_67_],-1);
constraint int_lin_le(X_INTRODUCED_78_,[X_INTRODUCED_47_,X_INTRODUCED_69_],-1);
constraint int_lin_le(X_INTRODUCED_78_,[X_INTRODUCED_48_,X_INTRODUCED_53_],-2);
constraint int_lin_le(X_INTRODUCED_78_,[X_INTRODUCED_49_,X_INTRODUCED_59_],-1);
constraint int_lin_le(X_INTRODUCED_78_,[X_INTRODUCED_50_,X_INTRODUCED_55_],-2);
constraint int_lin_le(X_INTRODUCED_78_,[X_INTRODUCED_51_,X_INTRODUCED_52_],-9);
constraint int_lin_le(X_INTRODUCED_78_,[X_INTRODUCED_51_,X_INTRODUCED_70_],-9);
constraint int_lin_le(X_INTRODUCED_78_,[X_INTRODUCED_52_,X_INTRODUCED_61_],-6);
constraint int_lin_le(X_INTRODUCED_78_,[X_INTRODUCED_53_,X_INTRODUCED_58_],-1);
constraint int_lin_le(X_INTRODUCED_78_,[X_INTRODUCED_54_,X_INTRODUCED_74_],-1);
constraint int_lin_le(X_INTRODUCED_78_,[X_INTRODUCED_55_,X_INTRODUCED_68_],-2);
constraint int_lin_le(X_INTRODUCED_78_,[X_INTRODUCED_56_,X_INTRODUCED_58_],-1);
constraint int_lin_le(X_INTRODUCED_78_,[X_INTRODUCED_57_,X_INTRODUCED_67_],-3);
constraint int_lin_le(X_INTRODUCED_78_,[X_INTRODUCED_58_,X_INTRODUCED_70_],-7);
constraint int_lin_le(X_INTRODUCED_78_,[X_INTRODUCED_59_,X_INTRODUCED_66_],-7);
constraint int_lin_le(X_INTRODUCED_78_,[X_INTRODUCED_60_,X_INTRODUCED_63_],-2);
constraint int_lin_le(X_INTRODUCED_78_,[X_INTRODUCED_61_,X_INTRODUCED_62_],-3);
constraint int_lin_le(X_INTRODUCED_78_,[X_INTRODUCED_62_,X_INTRODUCED_73_],-3);
constraint int_lin_le(X_INTRODUCED_78_,[X_INTRODUCED_63_,X_INTRODUCED_74_],-9);
constraint int_lin_le(X_INTRODUCED_78_,[X_INTRODUCED_64_,X_INTRODUCED_65_],-3);
constraint int_lin_le(X_INTRODUCED_78_,[X_INTRODUCED_64_,X_INTRODUCED_67_],-3);
constraint int_lin_le(X_INTRODUCED_78_,[X_INTRODUCED_64_,X_INTRODUCED_68_],-3);
constraint int_lin_le(X_INTRODUCED_78_,[X_INTRODUCED_65_,X_INTRODUCED_70_],-3);
constraint int_lin_le(X_INTRODUCED_78_,[X_INTRODUCED_66_,X_INTRODUCED_68_],-2);
constraint int_lin_le(X_INTRODUCED_78_,[X_INTRODUCED_67_,X_INTRODUCED_73_],-6);
constraint int_lin_le(X_INTRODUCED_78_,[X_INTRODUCED_68_,X_INTRODUCED_72_],-6);
constraint int_lin_le(X_INTRODUCED_78_,[X_INTRODUCED_69_,X_INTRODUCED_71_],-8);
constraint int_lin_le(X_INTRODUCED_78_,[X_INTRODUCED_70_,X_INTRODUCED_75_],-7);
constraint int_lin_le(X_INTRODUCED_78_,[X_INTRODUCED_71_,X_INTRODUCED_72_],-10);
constraint int_lin_le(X_INTRODUCED_78_,[X_INTRODUCED_72_,X_INTRODUCED_75_],-7);
constraint bool_clause([X_INTRODUCED_135_,X_INTRODUCED_136_],[]);
constraint bool_clause([X_INTRODUCED_137_,X_INTRODUCED_138_],[]);
constraint bool_clause([X_INTRODUCED_139_,X_INTRODUCED_140_],[]);
constraint bool_clause([X_INTRODUCED_141_,X_INTRODUCED_142_],[]);
constraint bool_clause([X_INTRODUCED_143_,X_INTRODUCED_144_],[]);
constraint bool_clause([X_INTRODUCED_145_,X_INTRODUCED_146_],[]);
constraint bool_clause([X_INTRODUCED_147_,X_INTRODUCED_148_],[]);
constraint bool_clause([X_INTRODUCED_149_,X_INTRODUCED_150_],[]);
constraint bool_clause([X_INTRODUCED_151_,X_INTRODUCED_152_],[]);
constraint bool_clause([X_INTRODUCED_153_,X_INTRODUCED_154_],[]);
constraint bool_clause([X_INTRODUCED_155_,X_INTRODUCED_156_],[]);
constraint bool_clause([X_INTRODUCED_157_,X_INTRODUCED_158_],[]);
constraint bool_clause([X_INTRODUCED_159_,X_INTRODUCED_160_],[]);
constraint bool_clause([X_INTRODUCED_161_,X_INTRODUCED_162_],[]);
constraint minicpp_cumulative(X_INTRODUCED_165_,X_INTRODUCED_164_,X_INTRODUCED_163_,18);
constraint minicpp_cumulative(X_INTRODUCED_168_,X_INTRODUCED_167_,X_INTRODUCED_166_,29);
constraint minicpp_cumulative(X_INTRODUCED_171_,X_INTRODUCED_170_,X_INTRODUCED_169_,20);
constraint minicpp_cumulative(X_INTRODUCED_174_,X_INTRODUCED_173_,X_INTRODUCED_172_,14);
constraint int_lin_le_imp(X_INTRODUCED_78_,[X_INTRODUCED_16_,X_INTRODUCED_37_],-2,X_INTRODUCED_135_):: defines_var(X_INTRODUCED_135_);
constraint int_lin_le_imp(X_INTRODUCED_78_,[X_INTRODUCED_37_,X_INTRODUCED_16_],-10,X_INTRODUCED_136_):: defines_var(X_INTRODUCED_136_);
constraint int_lin_le_imp(X_INTRODUCED_78_,[X_INTRODUCED_16_,X_INTRODUCED_52_],-2,X_INTRODUCED_137_):: defines_var(X_INTRODUCED_137_);
constraint int_lin_le_imp(X_INTRODUCED_78_,[X_INTRODUCED_52_,X_INTRODUCED_16_],-6,X_INTRODUCED_138_):: defines_var(X_INTRODUCED_138_);
constraint int_lin_le_imp(X_INTRODUCED_78_,[X_INTRODUCED_16_,X_INTRODUCED_62_],-2,X_INTRODUCED_139_):: defines_var(X_INTRODUCED_139_);
constraint int_lin_le_imp(X_INTRODUCED_78_,[X_INTRODUCED_62_,X_INTRODUCED_16_],-3,X_INTRODUCED_140_):: defines_var(X_INTRODUCED_140_);
constraint int_lin_le_imp(X_INTRODUCED_78_,[X_INTRODUCED_16_,X_INTRODUCED_72_],-2,X_INTRODUCED_141_):: defines_var(X_INTRODUCED_141_);
constraint int_lin_le_imp(X_INTRODUCED_78_,[X_INTRODUCED_72_,X_INTRODUCED_16_],-7,X_INTRODUCED_142_):: defines_var(X_INTRODUCED_142_);
constraint int_lin_le_imp(X_INTRODUCED_78_,[X_INTRODUCED_35_,X_INTRODUCED_64_],-8,X_INTRODUCED_143_):: defines_var(X_INTRODUCED_143_);
constraint int_lin_le_imp(X_INTRODUCED_78_,[X_INTRODUCED_64_,X_INTRODUCED_35_],-3,X_INTRODUCED_144_):: defines_var(X_INTRODUCED_144_);
constraint int_lin_le_imp(X_INTRODUCED_78_,[X_INTRODUCED_35_,X_INTRODUCED_69_],-8,X_INTRODUCED_145_):: defines_var(X_INTRODUCED_145_);
constraint int_lin_le_imp(X_INTRODUCED_78_,[X_INTRODUCED_69_,X_INTRODUCED_35_],-8,X_INTRODUCED_146_):: defines_var(X_INTRODUCED_146_);
constraint int_lin_le_imp(X_INTRODUCED_78_,[X_INTRODUCED_37_,X_INTRODUCED_52_],-10,X_INTRODUCED_147_):: defines_var(X_INTRODUCED_147_);
constraint int_lin_le_imp(X_INTRODUCED_78_,[X_INTRODUCED_52_,X_INTRODUCED_37_],-6,X_INTRODUCED_148_):: defines_var(X_INTRODUCED_148_);
constraint int_lin_le_imp(X_INTRODUCED_78_,[X_INTRODUCED_37_,X_INTRODUCED_62_],-10,X_INTRODUCED_149_):: defines_var(X_INTRODUCED_149_);
constraint int_lin_le_imp(X_INTRODUCED_78_,[X_INTRODUCED_62_,X_INTRODUCED_37_],-3,X_INTRODUCED_150_):: defines_var(X_INTRODUCED_150_);
constraint int_lin_le_imp(X_INTRODUCED_78_,[X_INTRODUCED_37_,X_INTRODUCED_72_],-10,X_INTRODUCED_151_):: defines_var(X_INTRODUCED_151_);
constraint int_lin_le_imp(X_INTRODUCED_78_,[X_INTRODUCED_72_,X_INTRODUCED_37_],-7,X_INTRODUCED_152_):: defines_var(X_INTRODUCED_152_);
constraint int_lin_le_imp(X_INTRODUCED_78_,[X_INTRODUCED_50_,X_INTRODUCED_64_],-2,X_INTRODUCED_153_):: defines_var(X_INTRODUCED_153_);
constraint int_lin_le_imp(X_INTRODUCED_78_,[X_INTRODUCED_64_,X_INTRODUCED_50_],-3,X_INTRODUCED_154_):: defines_var(X_INTRODUCED_154_);
constraint int_lin_le_imp(X_INTRODUCED_78_,[X_INTRODUCED_50_,X_INTRODUCED_69_],-2,X_INTRODUCED_155_):: defines_var(X_INTRODUCED_155_);
constraint int_lin_le_imp(X_INTRODUCED_78_,[X_INTRODUCED_69_,X_INTRODUCED_50_],-8,X_INTRODUCED_156_):: defines_var(X_INTRODUCED_156_);
constraint int_lin_le_imp(X_INTRODUCED_78_,[X_INTRODUCED_52_,X_INTRODUCED_62_],-6,X_INTRODUCED_157_):: defines_var(X_INTRODUCED_157_);
constraint int_lin_le_imp(X_INTRODUCED_78_,[X_INTRODUCED_62_,X_INTRODUCED_52_],-3,X_INTRODUCED_158_):: defines_var(X_INTRODUCED_158_);
constraint int_lin_le_imp(X_INTRODUCED_78_,[X_INTRODUCED_62_,X_INTRODUCED_72_],-3,X_INTRODUCED_159_):: defines_var(X_INTRODUCED_159_);
constraint int_lin_le_imp(X_INTRODUCED_78_,[X_INTRODUCED_72_,X_INTRODUCED_62_],-7,X_INTRODUCED_160_):: defines_var(X_INTRODUCED_160_);
constraint int_lin_le_imp(X_INTRODUCED_78_,[X_INTRODUCED_64_,X_INTRODUCED_69_],-3,X_INTRODUCED_161_):: defines_var(X_INTRODUCED_161_);
constraint int_lin_le_imp(X_INTRODUCED_78_,[X_INTRODUCED_69_,X_INTRODUCED_64_],-8,X_INTRODUCED_162_):: defines_var(X_INTRODUCED_162_);
solve :: int_search(s,smallest,indomain_min,complete) satisfy;
